WARNING: for repeatability, setting FPU to use double precision
============================[ Problem Statistics ]=============================
|                                                                             |
|  Number of variables:       1336943                                         |
|  Number of clauses:         2322582                                         |
|  Parse time:                   0.85 s                                       |
branch_file: └¦K
|  Simplification time:          0.00 s                                       |
|                                                                             |
===============================================================================
Solved by simplification
restarts              : 0
conflicts             : 0              (0 /sec)
decisions             : 0              (-nan % random) (0 /sec)
propagations          : 1050261        (1240752 /sec)
conflict literals     : 0              (-nan % deleted)
Memory used           : 356.51 MB
CPU time              : 0.846471 s

UNSATISFIABLE
